NAME : sim161.124839.tour
COMMENT : Length = 124839
COMMENT : Found by LKH [Keld Helsgaun] Sat Sep 15 09:37:49 2018
TYPE : TOUR
DIMENSION : 161
TOUR_SECTION
1
40
12
136
106
39
77
123
20
58
28
139
75
5
91
3
26
120
128
68
96
30
157
54
56
73
137
7
155
71
38
70
98
41
25
105
130
61
48
92
109
17
63
117
103
144
97
102
156
108
113
148
67
94
133
151
160
135
36
147
141
19
55
80
69
18
44
59
114
124
90
65
27
11
101
153
13
35
9
43
23
51
111
74
104
142
154
134
85
115
2
46
16
31
107
152
87
127
78
8
131
122
116
64
158
83
132
52
143
95
10
159
6
14
79
57
99
66
32
119
88
37
81
112
86
15
82
84
138
34
50
149
47
76
118
145
121
126
150
29
33
53
22
129
89
21
125
62
72
24
146
100
110
60
49
93
4
140
161
42
45
-1
EOF
